Version identifier: 22.1.0.0 | 2022-03-09 | 1a383f8ce
CPXPARAM_Threads                                 1
CPXPARAM_MIP_Strategy_VariableSelect             3
CPXPARAM_TimeLimit                               599.99998338199998
1 of 1 MIP starts provided solutions.
MIP start 'm1' defined initial solution with objective 1.0000.
Tried aggregator 2 times.
MIP Presolve eliminated 41 rows and 1 columns.
MIP Presolve added 28 rows and 7 columns.
MIP Presolve modified 160 coefficients.
Aggregator did 7 substitutions.
Reduced MIP has 901 rows, 2100 columns, and 24679 nonzeros.
Reduced MIP has 2100 binaries, 0 generals, 0 SOSs, and 0 indicators.
Presolve time = 0.04 sec. (59.48 ticks)
Probing time = 0.01 sec. (7.11 ticks)
Tried aggregator 1 time.
Detecting symmetries...
MIP Presolve modified 14 coefficients.
Reduced MIP has 901 rows, 2100 columns, and 25020 nonzeros.
Reduced MIP has 2100 binaries, 0 generals, 0 SOSs, and 0 indicators.
Presolve time = 0.03 sec. (29.05 ticks)
Probing time = 0.01 sec. (7.15 ticks)
Clique table members: 785.
MIP emphasis: balance optimality and feasibility.
MIP search method: dynamic search.
Parallel mode: none, using 1 thread.
Root relaxation solution time = 0.20 sec. (210.65 ticks)

        Nodes                                         Cuts/
   Node  Left     Objective  IInf  Best Integer    Best Bound    ItCnt     Gap

*     0+    0                            1.0000     5050.0000              --- 
      0     0      100.0000   409        1.0000      100.0000     1975     --- 
      0     0      100.0000   187        1.0000    Cliques: 4     2026     --- 
      0     0      100.0000   316        1.0000     Cuts: 110     2953     --- 
      0     0      100.0000   140        1.0000    Cliques: 3     3185     --- 
*     0+    0                           69.0000      100.0000            44.93%
*     0+    0                           90.0000      100.0000            11.11%
      0     0        cutoff             90.0000      100.0000     3185   11.11%
      0     0      100.0000   277       90.0000      Cuts: 53     3708   11.11%
*     0+    0                           93.0000      100.0000             7.53%
      0     0        cutoff             93.0000      100.0000     3708    7.53%
Detecting symmetries...
      0     2      100.0000   126       93.0000      100.0000     3708    7.53%
Elapsed time = 4.07 sec. (3953.88 ticks, tree = 0.01 MB, solutions = 4)
      1     3      100.0000   179       93.0000      100.0000     6393    7.53%
      3     5      100.0000   415       93.0000      100.0000     8932    7.53%
      6     8      100.0000   170       93.0000      100.0000     9240    7.53%
      9    11      100.0000   143       93.0000      100.0000     9661    7.53%
     11    13      100.0000   182       93.0000      100.0000    10912    7.53%
     14    16      100.0000   208       93.0000      100.0000    11468    7.53%
     17    19      100.0000   162       93.0000      100.0000    12150    7.53%
     20    22      100.0000   156       93.0000      100.0000    12828    7.53%
     24    26      100.0000   293       93.0000      100.0000    14298    7.53%
     32    34      100.0000   165       93.0000      100.0000    16229    7.53%
Elapsed time = 8.11 sec. (7815.68 ticks, tree = 0.21 MB, solutions = 4)
     44    46      100.0000   156       93.0000      100.0000    18616    7.53%
     57    59      100.0000   197       93.0000      100.0000    22336    7.53%
     72    74      100.0000   178       93.0000      100.0000    28082    7.53%
     86    88      100.0000   129       93.0000      100.0000    31030    7.53%
    103   105      100.0000   142       93.0000      100.0000    34400    7.53%
    123   119      100.0000   145       93.0000      100.0000    38983    7.53%
    155   134       98.0000    81       93.0000      100.0000    43130    7.53%
    173   145      100.0000   128       93.0000      100.0000    47617    7.53%
    192   163      100.0000   118       93.0000      100.0000    51106    7.53%
    221   173       99.0000    88       93.0000      100.0000    57105    7.53%
Elapsed time = 18.80 sec. (17590.98 ticks, tree = 1.36 MB, solutions = 4)
    249   179      100.0000   109       93.0000      100.0000    62323    7.53%
    271   187      100.0000   117       93.0000      100.0000    68019    7.53%
    295   202       97.0000    92       93.0000      100.0000    71294    7.53%
    327   214       96.4900   110       93.0000      100.0000    75257    7.53%
*   346   216      integral     0       95.0000      100.0000    76567    5.26%
    361   226       98.0000   100       95.0000      100.0000    78261    5.26%
    396   234    infeasible             95.0000      100.0000    82977    5.26%
    431   240       96.0000   130       95.0000      100.0000    88934    5.26%
    455   256       99.0000   128       95.0000      100.0000    92725    5.26%
*   479   255      integral     0       96.0000      100.0000    96603    4.17%
    485   257        cutoff             96.0000      100.0000    98507    4.17%
    513   266      100.0000   129       96.0000      100.0000   103548    4.17%
Elapsed time = 29.84 sec. (27276.66 ticks, tree = 2.15 MB, solutions = 6)
    536   279       99.0000   158       96.0000      100.0000   108190    4.17%
    566   288      100.0000   106       96.0000      100.0000   113153    4.17%
    598   295      100.0000   104       96.0000      100.0000   118551    4.17%
    622   311       99.0000    48       96.0000      100.0000   122462    4.17%
    657   309        cutoff             96.0000      100.0000   129389    4.17%
    687   308    infeasible             96.0000      100.0000   137599    4.17%
    718   310       99.0000   140       96.0000      100.0000   144556    4.17%
    750   313       99.0000    78       96.0000      100.0000   151462    4.17%
    778   316      100.0000    86       96.0000      100.0000   158519    4.17%
    804   326       99.0000    95       96.0000      100.0000   164125    4.17%
Elapsed time = 40.75 sec. (36977.44 ticks, tree = 2.66 MB, solutions = 6)
    834   334      100.0000   111       96.0000      100.0000   169804    4.17%
    862   343    infeasible             96.0000      100.0000   174880    4.17%
    894   342    infeasible             96.0000      100.0000   182915    4.17%
    915   355      100.0000   155       96.0000      100.0000   188223    4.17%
    943   361      100.0000   119       96.0000      100.0000   194687    4.17%
    970   368       99.0000   155       96.0000      100.0000   200284    4.17%
    999   372       99.0000    84       96.0000      100.0000   206213    4.17%
   1030   378       99.0000    57       96.0000      100.0000   213277    4.17%
*  1031   202      integral     0       99.0000      100.0000   213291    1.01%
   1061   204    infeasible             99.0000      100.0000   219729    1.01%
   1095   209      100.0000   123       99.0000      100.0000   224685    1.01%
Elapsed time = 51.65 sec. (46682.58 ticks, tree = 1.68 MB, solutions = 7)
   1128   206      100.0000   138       99.0000      100.0000   232415    1.01%
   1148   215    infeasible             99.0000      100.0000   238882    1.01%
   1172   215    infeasible             99.0000      100.0000   248489    1.01%
   1204   220      100.0000    82       99.0000      100.0000   252835    1.01%
   1233   239      100.0000   112       99.0000      100.0000   254720    1.01%
   1266   243    infeasible             99.0000      100.0000   259231    1.01%
   1302   248      100.0000   119       99.0000      100.0000   262748    1.01%
   1348   248      100.0000   139       99.0000      100.0000   266567    1.01%
   1388   250      100.0000   129       99.0000      100.0000   270899    1.01%
   1419   248      100.0000   103       99.0000      100.0000   278570    1.01%
Elapsed time = 62.64 sec. (56417.68 ticks, tree = 2.01 MB, solutions = 7)
   1456   256      100.0000    44       99.0000      100.0000   283853    1.01%
*  1488     1      integral     0      100.0000      100.0000   285586    0.00%

Clique cuts applied:  49
Zero-half cuts applied:  4

Root node processing (before b&c):
  Real time             =    4.06 sec. (3945.42 ticks)
Sequential b&c:
  Real time             =   60.34 sec. (54045.91 ticks)
                          ------------
Total (root+branch&cut) =   64.40 sec. (57991.34 ticks)
Primal:	100
Dual:	100
Status:	Optimal
Time:	64.4
Sequence:
	15
	6
	17
	1
	14
	9
	7
	2
	16
	6
	2
	5
	13
	12
	3
	5
	19
	8
	10
	12
	3
	5
	12
	14
	16
	12
	0
	4
	19
	11
	3
	7
	19
	4
	9
	19
	8
	16
	0
	2
	16
	11
	0
	4
	12
	11
	16
	18
	13
	1
	3
	11
	15
	7
	3
	1
	11
	8
	0
	16
	2
	11
	17
	1
	8
	9
	10
	2
	17
	10
	19
	0
	11
	4
	19
	6
	16
	8
	19
	9
	14
	15
	17
	14
	1
	9
	13
	15
	18
	9
	19
	4
	7
	9
	10
	18
	12
	11
	3
	15
